c CNF file corresponding to a (partial) station packing problem.
p cnf 4199 229
1 2 3 4 5 6 7 8 9 10 11 12 13 14 0
-1 -2 0
-1 -3 0
-1 -4 0
-1 -5 0
-1 -6 0
-1 -7 0
-1 -8 0
-1 -9 0
-1 -10 0
-1 -11 0
-1 -12 0
-1 -13 0
-1 -14 0
-2 -3 0
-2 -4 0
-2 -5 0
-2 -6 0
-2 -7 0
-2 -8 0
-2 -9 0
-2 -10 0
-2 -11 0
-2 -12 0
-2 -13 0
-2 -14 0
-3 -4 0
-3 -5 0
-3 -6 0
-3 -7 0
-3 -8 0
-3 -9 0
-3 -10 0
-3 -11 0
-3 -12 0
-3 -13 0
-3 -14 0
-4 -5 0
-4 -6 0
-4 -7 0
-4 -8 0
-4 -9 0
-4 -10 0
-4 -11 0
-4 -12 0
-4 -13 0
-4 -14 0
-5 -6 0
-5 -7 0
-5 -8 0
-5 -9 0
-5 -10 0
-5 -11 0
-5 -12 0
-5 -13 0
-5 -14 0
-6 -7 0
-6 -8 0
-6 -9 0
-6 -10 0
-6 -11 0
-6 -12 0
-6 -13 0
-6 -14 0
-7 -8 0
-7 -9 0
-7 -10 0
-7 -11 0
-7 -12 0
-7 -13 0
-7 -14 0
-8 -9 0
-8 -10 0
-8 -11 0
-8 -12 0
-8 -13 0
-8 -14 0
-9 -10 0
-9 -11 0
-9 -12 0
-9 -13 0
-9 -14 0
-10 -11 0
-10 -12 0
-10 -13 0
-10 -14 0
-11 -12 0
-11 -13 0
-11 -14 0
-12 -13 0
-12 -14 0
-13 -14 0
4183 4184 4185 4186 4187 4188 4189 4190 4191 4192 4193 4194 4195 4196 4197 4198 4199 0
-4183 -4184 0
-4183 -4185 0
-4183 -4186 0
-4183 -4187 0
-4183 -4188 0
-4183 -4189 0
-4183 -4190 0
-4183 -4191 0
-4183 -4192 0
-4183 -4193 0
-4183 -4194 0
-4183 -4195 0
-4183 -4196 0
-4183 -4197 0
-4183 -4198 0
-4183 -4199 0
-4184 -4185 0
-4184 -4186 0
-4184 -4187 0
-4184 -4188 0
-4184 -4189 0
-4184 -4190 0
-4184 -4191 0
-4184 -4192 0
-4184 -4193 0
-4184 -4194 0
-4184 -4195 0
-4184 -4196 0
-4184 -4197 0
-4184 -4198 0
-4184 -4199 0
-4185 -4186 0
-4185 -4187 0
-4185 -4188 0
-4185 -4189 0
-4185 -4190 0
-4185 -4191 0
-4185 -4192 0
-4185 -4193 0
-4185 -4194 0
-4185 -4195 0
-4185 -4196 0
-4185 -4197 0
-4185 -4198 0
-4185 -4199 0
-4186 -4187 0
-4186 -4188 0
-4186 -4189 0
-4186 -4190 0
-4186 -4191 0
-4186 -4192 0
-4186 -4193 0
-4186 -4194 0
-4186 -4195 0
-4186 -4196 0
-4186 -4197 0
-4186 -4198 0
-4186 -4199 0
-4187 -4188 0
-4187 -4189 0
-4187 -4190 0
-4187 -4191 0
-4187 -4192 0
-4187 -4193 0
-4187 -4194 0
-4187 -4195 0
-4187 -4196 0
-4187 -4197 0
-4187 -4198 0
-4187 -4199 0
-4188 -4189 0
-4188 -4190 0
-4188 -4191 0
-4188 -4192 0
-4188 -4193 0
-4188 -4194 0
-4188 -4195 0
-4188 -4196 0
-4188 -4197 0
-4188 -4198 0
-4188 -4199 0
-4189 -4190 0
-4189 -4191 0
-4189 -4192 0
-4189 -4193 0
-4189 -4194 0
-4189 -4195 0
-4189 -4196 0
-4189 -4197 0
-4189 -4198 0
-4189 -4199 0
-4190 -4191 0
-4190 -4192 0
-4190 -4193 0
-4190 -4194 0
-4190 -4195 0
-4190 -4196 0
-4190 -4197 0
-4190 -4198 0
-4190 -4199 0
-4191 -4192 0
-4191 -4193 0
-4191 -4194 0
-4191 -4195 0
-4191 -4196 0
-4191 -4197 0
-4191 -4198 0
-4191 -4199 0
-4192 -4193 0
-4192 -4194 0
-4192 -4195 0
-4192 -4196 0
-4192 -4197 0
-4192 -4198 0
-4192 -4199 0
-4193 -4194 0
-4193 -4195 0
-4193 -4196 0
-4193 -4197 0
-4193 -4198 0
-4193 -4199 0
-4194 -4195 0
-4194 -4196 0
-4194 -4197 0
-4194 -4198 0
-4194 -4199 0
-4195 -4196 0
-4195 -4197 0
-4195 -4198 0
-4195 -4199 0
-4196 -4197 0
-4196 -4198 0
-4196 -4199 0
-4197 -4198 0
-4197 -4199 0
-4198 -4199 0
